c nIsolatedPIs 0
c maxPI 7
p cnf 16 28
c gate 8 -3 5 0
-3 -8 0
5 -8 0
3 -5 8 0
c gate 9 -7 8 0
-7 -9 0
8 -9 0
7 -8 9 0
c gate 10 2 3 0
2 -10 0
3 -10 0
-2 -3 10 0
c gate 11 -1 -10 0
-1 -11 0
-10 -11 0
1 10 11 0
c gate 12 -5 7 0
-5 -12 0
7 -12 0
5 -7 12 0
c gate 13 -11 12 0
-11 -13 0
12 -13 0
11 -12 13 0
c gate 14 -9 -13 0
-9 -14 0
-13 -14 0
9 13 14 0
c gate 15 4 6 0
4 -15 0
6 -15 0
-4 -6 15 0
c gate 16 -14 15 0
-14 -16 0
15 -16 0
14 -15 16 0
c PO
16 0
